
Gurobi 10.0.1 (win64) logging started Sat Dec 30 18:29:11 2023

Set parameter LogFile to value "outputs/THESIS/symmetry1/gurobi/50weeks.txt"

Gurobi 10.0.1 (win64) logging started Sat Dec 30 18:29:29 2023

Set parameter LogFile to value "outputs/THESIS/symmetry1/gurobi/50weeks.txt"
Gurobi Optimizer version 10.0.1 build v10.0.1rc0 (win64)

CPU model: AMD Ryzen 7 5700U with Radeon Graphics, instruction set [SSE2|AVX|AVX2]
Thread count: 8 physical cores, 16 logical processors, using up to 16 threads

Optimize a model with 1066802 rows, 1436509 columns and 4670509 nonzeros
Model fingerprint: 0xba641176
Coefficient statistics:
  Matrix range     [1e-04, 1e+04]
  Objective range  [1e+00, 1e+00]
  Bounds range     [1e+02, 7e+04]
  RHS range        [1e+03, 7e+04]
Presolve removed 2 rows and 2 columns
Presolve time: 2.48s
Presolved: 1066800 rows, 1436507 columns, 3603600 nonzeros

Ordering time: 0.07s

Barrier statistics:
 Dense cols : 20
 AA' NZ     : 7.056e+05
 Factor NZ  : 6.989e+06 (roughly 500 MB of memory)
 Factor Ops : 1.744e+08 (less than 1 second per iteration)
 Threads    : 8

                  Objective                Residual
Iter       Primal          Dual         Primal    Dual     Compl     Time
   0   1.83757215e+10 -1.17548797e+11  2.25e+04 9.44e+00  9.37e+05     6s
   1   3.42591765e+09 -9.23550272e+10  1.83e+03 2.23e+00  1.15e+05     6s
   2   2.26795338e+09 -2.03558117e+10  9.09e-12 1.62e-01  1.61e+04     6s
   3   4.95557343e+08 -7.61460777e+08  9.09e-12 1.28e-13  8.93e+02     7s
   4   1.31679140e+08 -1.07040071e+07  9.09e-12 1.65e-14  1.01e+02     7s
   5   7.76074203e+07  3.44836850e+05  1.24e-10 1.12e-14  5.48e+01     7s
   6   6.44427311e+07  4.36281804e+06  7.69e-10 1.03e-14  4.26e+01     8s
   7   5.85908213e+07  6.72532449e+06  2.98e-09 9.50e-15  3.68e+01     8s
   8   4.88367690e+07  8.07123953e+06  6.53e-08 8.51e-15  2.89e+01     8s
   9   4.00513579e+07  1.03227018e+07  9.39e-08 1.06e-14  2.11e+01     8s
  10   3.57612614e+07  1.09806403e+07  8.04e-08 1.01e-14  1.76e+01     9s
  11   2.98206520e+07  1.12546417e+07  1.22e-07 9.97e-15  1.32e+01     9s
  12   2.77748472e+07  1.17697105e+07  3.70e-07 9.27e-15  1.13e+01     9s
  13   2.58213888e+07  1.21558940e+07  3.80e-07 9.40e-15  9.68e+00    10s
  14   2.25418443e+07  1.25125675e+07  6.57e-07 8.94e-15  7.11e+00    10s
  15   2.07857500e+07  1.29265816e+07  3.17e-07 9.79e-15  5.57e+00    11s
  16   2.00794511e+07  1.30216100e+07  4.50e-07 9.44e-15  5.00e+00    11s
  17   1.92120984e+07  1.30854055e+07  2.75e-07 1.02e-14  4.34e+00    11s
  18   1.80371373e+07  1.33336723e+07  2.77e-07 9.25e-15  3.33e+00    11s
  19   1.73425584e+07  1.34971660e+07  1.22e-06 8.93e-15  2.72e+00    12s
  20   1.65560303e+07  1.35521081e+07  1.43e-06 9.12e-15  2.13e+00    12s
  21   1.59283331e+07  1.36089620e+07  2.06e-06 9.25e-15  1.64e+00    13s
  22   1.57551009e+07  1.36370232e+07  1.91e-06 8.74e-15  1.50e+00    13s
  23   1.54856133e+07  1.36564957e+07  1.71e-06 9.55e-15  1.30e+00    13s
  24   1.52777847e+07  1.37079419e+07  1.45e-06 1.07e-14  1.11e+00    14s
  25   1.49028150e+07  1.37249829e+07  1.11e-06 1.07e-14  8.35e-01    14s
  26   1.48767461e+07  1.37394515e+07  1.09e-06 1.07e-14  8.06e-01    14s
  27   1.44587169e+07  1.37666058e+07  8.67e-07 9.13e-15  4.90e-01    15s
  28   1.42115687e+07  1.38001454e+07  5.17e-07 9.99e-15  2.92e-01    15s
  29   1.40342815e+07  1.38138194e+07  3.00e-07 9.57e-15  1.56e-01    16s
  30   1.39511422e+07  1.38243967e+07  1.87e-07 9.69e-15  8.98e-02    16s
  31   1.39177792e+07  1.38289475e+07  1.29e-07 9.37e-15  6.29e-02    16s
  32   1.39081898e+07  1.38322751e+07  1.12e-07 1.00e-14  5.38e-02    17s
  33   1.38947855e+07  1.38363414e+07  8.98e-08 9.91e-15  4.14e-02    17s
  34   1.38745571e+07  1.38384557e+07  5.57e-08 9.69e-15  2.56e-02    17s
  35   1.38602384e+07  1.38397191e+07  3.11e-08 1.01e-14  1.45e-02    18s
  36   1.38530852e+07  1.38406483e+07  1.93e-08 9.91e-15  8.81e-03    18s
  37   1.38489372e+07  1.38409615e+07  1.22e-08 9.71e-15  5.65e-03    18s
  38   1.38453768e+07  1.38412317e+07  6.37e-09 1.08e-14  2.94e-03    18s
  39   1.38426661e+07  1.38413496e+07  1.87e-09 9.88e-15  9.33e-04    19s
  40   1.38417836e+07  1.38413764e+07  4.77e-10 6.91e-12  2.89e-04    19s
  41   1.38415650e+07  1.38414232e+07  1.98e-09 6.41e-12  1.00e-04    19s
  42   1.38414753e+07  1.38414398e+07  1.01e-09 1.06e-11  2.52e-05    20s
  43   1.38414568e+07  1.38414475e+07  3.28e-10 4.58e-12  6.57e-06    20s
  44   1.38414492e+07  1.38414487e+07  7.28e-12 6.61e-12  3.63e-07    20s
  45   1.38414491e+07  1.38414491e+07  2.53e-09 6.37e-12  3.19e-09    20s
  46   1.38414491e+07  1.38414491e+07  3.70e-10 7.73e-12  6.69e-15    21s

Barrier solved model in 46 iterations and 20.71 seconds (14.28 work units)
Optimal objective 1.38414491e+07

Crossover log...

   12958 DPushes remaining with DInf 0.0000000e+00                21s
       0 DPushes remaining with DInf 0.0000000e+00                21s

    1947 PPushes remaining with PInf 0.0000000e+00                21s
       0 PPushes remaining with PInf 0.0000000e+00                21s

  Push phase complete: Pinf 0.0000000e+00, Dinf 1.1949840e+02     21s

Iteration    Objective       Primal Inf.    Dual Inf.      Time
    6556    1.3841449e+07   0.000000e+00   1.194984e+02     22s
    6557    1.3841449e+07   0.000000e+00   0.000000e+00     22s

Use crossover to convert LP symmetric solution to basic solution...
Crossover log...

    7934 DPushes remaining with DInf 0.0000000e+00                23s
     666 DPushes remaining with DInf 0.0000000e+00                26s
       0 DPushes remaining with DInf 0.0000000e+00                27s

  594073 PPushes remaining with PInf 0.0000000e+00                27s
       0 PPushes remaining with PInf 0.0000000e+00                31s

  Push phase complete: Pinf 0.0000000e+00, Dinf 8.0000013e-04     31s

Iteration    Objective       Primal Inf.    Dual Inf.      Time
  608504    1.3841449e+07   0.000000e+00   8.000000e-04     31s
  608505    1.3841449e+07   0.000000e+00   0.000000e+00     33s

Solved in 608505 iterations and 32.53 seconds (25.53 work units)
Optimal objective  1.384144908e+07

User-callback calls 618245, time in user-callback 0.11 sec

Gurobi 10.0.1 (win64) logging started Sat Dec 30 18:30:09 2023

Set parameter LogFile to value "outputs/THESIS/symmetry1/gurobi/50weeks.txt"

Gurobi 10.0.1 (win64) logging started Sat Dec 30 18:30:28 2023

Set parameter LogFile to value "outputs/THESIS/symmetry1/gurobi/50weeks.txt"
Gurobi Optimizer version 10.0.1 build v10.0.1rc0 (win64)

CPU model: AMD Ryzen 7 5700U with Radeon Graphics, instruction set [SSE2|AVX|AVX2]
Thread count: 8 physical cores, 16 logical processors, using up to 16 threads

Optimize a model with 1066802 rows, 1436509 columns and 4670509 nonzeros
Model fingerprint: 0xba641176
Coefficient statistics:
  Matrix range     [1e-04, 1e+04]
  Objective range  [1e+00, 1e+00]
  Bounds range     [1e+02, 7e+04]
  RHS range        [1e+03, 7e+04]
Presolve removed 2 rows and 2 columns
Presolve time: 2.84s
Presolved: 1066800 rows, 1436507 columns, 3603600 nonzeros

Ordering time: 0.07s

Barrier statistics:
 Dense cols : 20
 AA' NZ     : 7.056e+05
 Factor NZ  : 6.989e+06 (roughly 500 MB of memory)
 Factor Ops : 1.744e+08 (less than 1 second per iteration)
 Threads    : 8

                  Objective                Residual
Iter       Primal          Dual         Primal    Dual     Compl     Time
   0   1.83757215e+10 -1.17548797e+11  2.25e+04 9.44e+00  9.37e+05     6s
   1   3.42591765e+09 -9.23550272e+10  1.83e+03 2.23e+00  1.15e+05     6s
   2   2.26795338e+09 -2.03558117e+10  9.09e-12 1.62e-01  1.61e+04     7s
   3   4.95557343e+08 -7.61460777e+08  9.09e-12 1.28e-13  8.93e+02     7s
   4   1.31679140e+08 -1.07040071e+07  9.09e-12 1.65e-14  1.01e+02     7s
   5   7.76074203e+07  3.44836850e+05  1.24e-10 1.12e-14  5.48e+01     7s
   6   6.44427311e+07  4.36281804e+06  7.69e-10 1.03e-14  4.26e+01     8s
   7   5.85908213e+07  6.72532449e+06  2.98e-09 9.50e-15  3.68e+01     8s
   8   4.88367690e+07  8.07123953e+06  6.53e-08 8.51e-15  2.89e+01     8s
   9   4.00513579e+07  1.03227018e+07  9.39e-08 1.06e-14  2.11e+01     8s
  10   3.57612614e+07  1.09806403e+07  8.04e-08 1.01e-14  1.76e+01     9s
  11   2.98206520e+07  1.12546417e+07  1.22e-07 9.97e-15  1.32e+01     9s
  12   2.77748472e+07  1.17697105e+07  3.70e-07 9.27e-15  1.13e+01     9s
  13   2.58213888e+07  1.21558940e+07  3.80e-07 9.40e-15  9.68e+00    10s
  14   2.25418443e+07  1.25125675e+07  6.57e-07 8.94e-15  7.11e+00    10s
  15   2.07857500e+07  1.29265816e+07  3.17e-07 9.79e-15  5.57e+00    10s
  16   2.00794511e+07  1.30216100e+07  4.50e-07 9.44e-15  5.00e+00    11s
  17   1.92120984e+07  1.30854055e+07  2.75e-07 1.02e-14  4.34e+00    11s
  18   1.80371373e+07  1.33336723e+07  2.77e-07 9.25e-15  3.33e+00    11s
  19   1.73425584e+07  1.34971660e+07  1.22e-06 8.93e-15  2.72e+00    12s
  20   1.65560303e+07  1.35521081e+07  1.43e-06 9.12e-15  2.13e+00    12s
  21   1.59283331e+07  1.36089620e+07  2.06e-06 9.25e-15  1.64e+00    12s
  22   1.57551009e+07  1.36370232e+07  1.91e-06 8.74e-15  1.50e+00    13s
  23   1.54856133e+07  1.36564957e+07  1.71e-06 9.55e-15  1.30e+00    13s
  24   1.52777847e+07  1.37079419e+07  1.45e-06 1.07e-14  1.11e+00    13s
  25   1.49028150e+07  1.37249829e+07  1.11e-06 1.07e-14  8.35e-01    14s
  26   1.48767461e+07  1.37394515e+07  1.09e-06 1.07e-14  8.06e-01    14s
  27   1.44587169e+07  1.37666058e+07  8.67e-07 9.13e-15  4.90e-01    14s
  28   1.42115687e+07  1.38001454e+07  5.17e-07 9.99e-15  2.92e-01    15s
  29   1.40342815e+07  1.38138194e+07  3.00e-07 9.57e-15  1.56e-01    15s
  30   1.39511422e+07  1.38243967e+07  1.87e-07 9.69e-15  8.98e-02    16s
  31   1.39177792e+07  1.38289475e+07  1.29e-07 9.37e-15  6.29e-02    16s
  32   1.39081898e+07  1.38322751e+07  1.12e-07 1.00e-14  5.38e-02    16s
  33   1.38947855e+07  1.38363414e+07  8.98e-08 9.91e-15  4.14e-02    17s
  34   1.38745571e+07  1.38384557e+07  5.57e-08 9.69e-15  2.56e-02    17s
  35   1.38602384e+07  1.38397191e+07  3.11e-08 1.01e-14  1.45e-02    17s
  36   1.38530852e+07  1.38406483e+07  1.93e-08 9.91e-15  8.81e-03    17s
  37   1.38489372e+07  1.38409615e+07  1.22e-08 9.71e-15  5.65e-03    18s
  38   1.38453768e+07  1.38412317e+07  6.37e-09 1.08e-14  2.94e-03    18s
  39   1.38426661e+07  1.38413496e+07  1.87e-09 9.88e-15  9.33e-04    18s
  40   1.38417836e+07  1.38413764e+07  4.77e-10 6.91e-12  2.89e-04    19s
  41   1.38415650e+07  1.38414232e+07  1.98e-09 6.41e-12  1.00e-04    19s
  42   1.38414753e+07  1.38414398e+07  1.01e-09 1.06e-11  2.52e-05    19s
  43   1.38414568e+07  1.38414475e+07  3.28e-10 4.58e-12  6.57e-06    19s
  44   1.38414492e+07  1.38414487e+07  7.28e-12 6.61e-12  3.63e-07    20s
  45   1.38414491e+07  1.38414491e+07  2.53e-09 6.37e-12  3.19e-09    20s
  46   1.38414491e+07  1.38414491e+07  3.70e-10 7.73e-12  6.69e-15    20s

Barrier solved model in 46 iterations and 20.16 seconds (14.28 work units)
Optimal objective 1.38414491e+07

Crossover log...

   12958 DPushes remaining with DInf 0.0000000e+00                20s
       0 DPushes remaining with DInf 0.0000000e+00                21s

    1947 PPushes remaining with PInf 0.0000000e+00                21s
       0 PPushes remaining with PInf 0.0000000e+00                21s

  Push phase complete: Pinf 0.0000000e+00, Dinf 1.1949840e+02     21s

Iteration    Objective       Primal Inf.    Dual Inf.      Time
    6556    1.3841449e+07   0.000000e+00   1.194984e+02     21s
    6557    1.3841449e+07   0.000000e+00   0.000000e+00     21s

Use crossover to convert LP symmetric solution to basic solution...
Crossover log...

    7934 DPushes remaining with DInf 0.0000000e+00                23s
     666 DPushes remaining with DInf 0.0000000e+00                25s
       0 DPushes remaining with DInf 0.0000000e+00                26s

  594073 PPushes remaining with PInf 0.0000000e+00                26s
       0 PPushes remaining with PInf 0.0000000e+00                30s

  Push phase complete: Pinf 0.0000000e+00, Dinf 8.0000013e-04     30s

Iteration    Objective       Primal Inf.    Dual Inf.      Time
  608504    1.3841449e+07   0.000000e+00   8.000000e-04     30s
  608505    1.3841449e+07   0.000000e+00   0.000000e+00     32s

Solved in 608505 iterations and 31.63 seconds (25.53 work units)
Optimal objective  1.384144908e+07

User-callback calls 618232, time in user-callback 0.09 sec

Gurobi 10.0.1 (win64) logging started Sat Dec 30 18:31:07 2023

Set parameter LogFile to value "outputs/THESIS/symmetry1/gurobi/50weeks.txt"

Gurobi 10.0.1 (win64) logging started Sat Dec 30 18:31:26 2023

Set parameter LogFile to value "outputs/THESIS/symmetry1/gurobi/50weeks.txt"
Gurobi Optimizer version 10.0.1 build v10.0.1rc0 (win64)

CPU model: AMD Ryzen 7 5700U with Radeon Graphics, instruction set [SSE2|AVX|AVX2]
Thread count: 8 physical cores, 16 logical processors, using up to 16 threads

Optimize a model with 1066802 rows, 1436509 columns and 4670509 nonzeros
Model fingerprint: 0xba641176
Coefficient statistics:
  Matrix range     [1e-04, 1e+04]
  Objective range  [1e+00, 1e+00]
  Bounds range     [1e+02, 7e+04]
  RHS range        [1e+03, 7e+04]
Presolve removed 2 rows and 2 columns
Presolve time: 2.57s
Presolved: 1066800 rows, 1436507 columns, 3603600 nonzeros

Ordering time: 0.07s

Barrier statistics:
 Dense cols : 20
 AA' NZ     : 7.056e+05
 Factor NZ  : 6.989e+06 (roughly 500 MB of memory)
 Factor Ops : 1.744e+08 (less than 1 second per iteration)
 Threads    : 8

                  Objective                Residual
Iter       Primal          Dual         Primal    Dual     Compl     Time
   0   1.83757215e+10 -1.17548797e+11  2.25e+04 9.44e+00  9.37e+05     6s
   1   3.42591765e+09 -9.23550272e+10  1.83e+03 2.23e+00  1.15e+05     6s
   2   2.26795338e+09 -2.03558117e+10  9.09e-12 1.62e-01  1.61e+04     6s
   3   4.95557343e+08 -7.61460777e+08  9.09e-12 1.28e-13  8.93e+02     7s
   4   1.31679140e+08 -1.07040071e+07  9.09e-12 1.65e-14  1.01e+02     7s
   5   7.76074203e+07  3.44836850e+05  1.24e-10 1.12e-14  5.48e+01     7s
   6   6.44427311e+07  4.36281804e+06  7.69e-10 1.03e-14  4.26e+01     7s
   7   5.85908213e+07  6.72532449e+06  2.98e-09 9.50e-15  3.68e+01     7s
   8   4.88367690e+07  8.07123953e+06  6.53e-08 8.51e-15  2.89e+01     8s
   9   4.00513579e+07  1.03227018e+07  9.39e-08 1.06e-14  2.11e+01     8s
  10   3.57612614e+07  1.09806403e+07  8.04e-08 1.01e-14  1.76e+01     8s
  11   2.98206520e+07  1.12546417e+07  1.22e-07 9.97e-15  1.32e+01     9s
  12   2.77748472e+07  1.17697105e+07  3.70e-07 9.27e-15  1.13e+01     9s
  13   2.58213888e+07  1.21558940e+07  3.80e-07 9.40e-15  9.68e+00     9s
  14   2.25418443e+07  1.25125675e+07  6.57e-07 8.94e-15  7.11e+00    10s
  15   2.07857500e+07  1.29265816e+07  3.17e-07 9.79e-15  5.57e+00    10s
  16   2.00794511e+07  1.30216100e+07  4.50e-07 9.44e-15  5.00e+00    11s
  17   1.92120984e+07  1.30854055e+07  2.75e-07 1.02e-14  4.34e+00    11s
  18   1.80371373e+07  1.33336723e+07  2.77e-07 9.25e-15  3.33e+00    11s
  19   1.73425584e+07  1.34971660e+07  1.22e-06 8.93e-15  2.72e+00    12s
  20   1.65560303e+07  1.35521081e+07  1.43e-06 9.12e-15  2.13e+00    12s
  21   1.59283331e+07  1.36089620e+07  2.06e-06 9.25e-15  1.64e+00    12s
  22   1.57551009e+07  1.36370232e+07  1.91e-06 8.74e-15  1.50e+00    13s
  23   1.54856133e+07  1.36564957e+07  1.71e-06 9.55e-15  1.30e+00    13s
  24   1.52777847e+07  1.37079419e+07  1.45e-06 1.07e-14  1.11e+00    13s
  25   1.49028150e+07  1.37249829e+07  1.11e-06 1.07e-14  8.35e-01    14s
  26   1.48767461e+07  1.37394515e+07  1.09e-06 1.07e-14  8.06e-01    14s
  27   1.44587169e+07  1.37666058e+07  8.67e-07 9.13e-15  4.90e-01    14s
  28   1.42115687e+07  1.38001454e+07  5.17e-07 9.99e-15  2.92e-01    15s
  29   1.40342815e+07  1.38138194e+07  3.00e-07 9.57e-15  1.56e-01    15s
  30   1.39511422e+07  1.38243967e+07  1.87e-07 9.69e-15  8.98e-02    16s
  31   1.39177792e+07  1.38289475e+07  1.29e-07 9.37e-15  6.29e-02    16s
  32   1.39081898e+07  1.38322751e+07  1.12e-07 1.00e-14  5.38e-02    16s
  33   1.38947855e+07  1.38363414e+07  8.98e-08 9.91e-15  4.14e-02    16s
  34   1.38745571e+07  1.38384557e+07  5.57e-08 9.69e-15  2.56e-02    17s
  35   1.38602384e+07  1.38397191e+07  3.11e-08 1.01e-14  1.45e-02    17s
  36   1.38530852e+07  1.38406483e+07  1.93e-08 9.91e-15  8.81e-03    17s
  37   1.38489372e+07  1.38409615e+07  1.22e-08 9.71e-15  5.65e-03    17s
  38   1.38453768e+07  1.38412317e+07  6.37e-09 1.08e-14  2.94e-03    18s
  39   1.38426661e+07  1.38413496e+07  1.87e-09 9.88e-15  9.33e-04    18s
  40   1.38417836e+07  1.38413764e+07  4.77e-10 6.91e-12  2.89e-04    18s
  41   1.38415650e+07  1.38414232e+07  1.98e-09 6.41e-12  1.00e-04    19s
  42   1.38414753e+07  1.38414398e+07  1.01e-09 1.06e-11  2.52e-05    19s
  43   1.38414568e+07  1.38414475e+07  3.28e-10 4.58e-12  6.57e-06    19s
  44   1.38414492e+07  1.38414487e+07  7.28e-12 6.61e-12  3.63e-07    19s
  45   1.38414491e+07  1.38414491e+07  2.53e-09 6.37e-12  3.19e-09    20s
  46   1.38414491e+07  1.38414491e+07  3.70e-10 7.73e-12  6.69e-15    20s

Barrier solved model in 46 iterations and 19.85 seconds (14.28 work units)
Optimal objective 1.38414491e+07

Crossover log...

   12958 DPushes remaining with DInf 0.0000000e+00                20s
       0 DPushes remaining with DInf 0.0000000e+00                20s

    1947 PPushes remaining with PInf 0.0000000e+00                20s
       0 PPushes remaining with PInf 0.0000000e+00                21s

  Push phase complete: Pinf 0.0000000e+00, Dinf 1.1949840e+02     21s

Iteration    Objective       Primal Inf.    Dual Inf.      Time
    6556    1.3841449e+07   0.000000e+00   1.194984e+02     21s
    6557    1.3841449e+07   0.000000e+00   0.000000e+00     21s

Use crossover to convert LP symmetric solution to basic solution...
Crossover log...

    7934 DPushes remaining with DInf 0.0000000e+00                22s
     129 DPushes remaining with DInf 0.0000000e+00                25s
       0 DPushes remaining with DInf 0.0000000e+00                25s

  594073 PPushes remaining with PInf 0.0000000e+00                26s
       0 PPushes remaining with PInf 0.0000000e+00                29s

  Push phase complete: Pinf 0.0000000e+00, Dinf 8.0000013e-04     29s

Iteration    Objective       Primal Inf.    Dual Inf.      Time
  608504    1.3841449e+07   0.000000e+00   8.000000e-04     30s
  608505    1.3841449e+07   0.000000e+00   0.000000e+00     31s

Solved in 608505 iterations and 30.85 seconds (25.53 work units)
Optimal objective  1.384144908e+07

User-callback calls 618218, time in user-callback 0.10 sec

Gurobi 10.0.1 (win64) logging started Sat Dec 30 18:32:03 2023

Set parameter LogFile to value "outputs/THESIS/symmetry1/gurobi/50weeks.txt"

Gurobi 10.0.1 (win64) logging started Sat Dec 30 18:32:22 2023

Set parameter LogFile to value "outputs/THESIS/symmetry1/gurobi/50weeks.txt"
Gurobi Optimizer version 10.0.1 build v10.0.1rc0 (win64)

CPU model: AMD Ryzen 7 5700U with Radeon Graphics, instruction set [SSE2|AVX|AVX2]
Thread count: 8 physical cores, 16 logical processors, using up to 16 threads

Optimize a model with 1066802 rows, 1436509 columns and 4670509 nonzeros
Model fingerprint: 0xba641176
Coefficient statistics:
  Matrix range     [1e-04, 1e+04]
  Objective range  [1e+00, 1e+00]
  Bounds range     [1e+02, 7e+04]
  RHS range        [1e+03, 7e+04]
Presolve removed 2 rows and 2 columns
Presolve time: 2.46s
Presolved: 1066800 rows, 1436507 columns, 3603600 nonzeros

Ordering time: 0.07s

Barrier statistics:
 Dense cols : 20
 AA' NZ     : 7.056e+05
 Factor NZ  : 6.989e+06 (roughly 500 MB of memory)
 Factor Ops : 1.744e+08 (less than 1 second per iteration)
 Threads    : 8

                  Objective                Residual
Iter       Primal          Dual         Primal    Dual     Compl     Time
   0   1.83757215e+10 -1.17548797e+11  2.25e+04 9.44e+00  9.37e+05     6s
   1   3.42591765e+09 -9.23550272e+10  1.83e+03 2.23e+00  1.15e+05     6s
   2   2.26795338e+09 -2.03558117e+10  9.09e-12 1.62e-01  1.61e+04     6s
   3   4.95557343e+08 -7.61460777e+08  9.09e-12 1.28e-13  8.93e+02     6s
   4   1.31679140e+08 -1.07040071e+07  9.09e-12 1.65e-14  1.01e+02     7s
   5   7.76074203e+07  3.44836850e+05  1.24e-10 1.12e-14  5.48e+01     7s
   6   6.44427311e+07  4.36281804e+06  7.69e-10 1.03e-14  4.26e+01     7s
   7   5.85908213e+07  6.72532449e+06  2.98e-09 9.50e-15  3.68e+01     7s
   8   4.88367690e+07  8.07123953e+06  6.53e-08 8.51e-15  2.89e+01     8s
   9   4.00513579e+07  1.03227018e+07  9.39e-08 1.06e-14  2.11e+01     8s
  10   3.57612614e+07  1.09806403e+07  8.04e-08 1.01e-14  1.76e+01     8s
  11   2.98206520e+07  1.12546417e+07  1.22e-07 9.97e-15  1.32e+01     8s
  12   2.77748472e+07  1.17697105e+07  3.70e-07 9.27e-15  1.13e+01     9s
  13   2.58213888e+07  1.21558940e+07  3.80e-07 9.40e-15  9.68e+00     9s
  14   2.25418443e+07  1.25125675e+07  6.57e-07 8.94e-15  7.11e+00     9s
  15   2.07857500e+07  1.29265816e+07  3.17e-07 9.79e-15  5.57e+00    10s
  16   2.00794511e+07  1.30216100e+07  4.50e-07 9.44e-15  5.00e+00    10s
  17   1.92120984e+07  1.30854055e+07  2.75e-07 1.02e-14  4.34e+00    10s
  18   1.80371373e+07  1.33336723e+07  2.77e-07 9.25e-15  3.33e+00    11s
  19   1.73425584e+07  1.34971660e+07  1.22e-06 8.93e-15  2.72e+00    11s
  20   1.65560303e+07  1.35521081e+07  1.43e-06 9.12e-15  2.13e+00    11s
  21   1.59283331e+07  1.36089620e+07  2.06e-06 9.25e-15  1.64e+00    12s
  22   1.57551009e+07  1.36370232e+07  1.91e-06 8.74e-15  1.50e+00    12s
  23   1.54856133e+07  1.36564957e+07  1.71e-06 9.55e-15  1.30e+00    12s
  24   1.52777847e+07  1.37079419e+07  1.45e-06 1.07e-14  1.11e+00    13s
  25   1.49028150e+07  1.37249829e+07  1.11e-06 1.07e-14  8.35e-01    13s
  26   1.48767461e+07  1.37394515e+07  1.09e-06 1.07e-14  8.06e-01    13s
  27   1.44587169e+07  1.37666058e+07  8.67e-07 9.13e-15  4.90e-01    14s
  28   1.42115687e+07  1.38001454e+07  5.17e-07 9.99e-15  2.92e-01    14s
  29   1.40342815e+07  1.38138194e+07  3.00e-07 9.57e-15  1.56e-01    15s
  30   1.39511422e+07  1.38243967e+07  1.87e-07 9.69e-15  8.98e-02    15s
  31   1.39177792e+07  1.38289475e+07  1.29e-07 9.37e-15  6.29e-02    15s
  32   1.39081898e+07  1.38322751e+07  1.12e-07 1.00e-14  5.38e-02    15s
  33   1.38947855e+07  1.38363414e+07  8.98e-08 9.91e-15  4.14e-02    16s
  34   1.38745571e+07  1.38384557e+07  5.57e-08 9.69e-15  2.56e-02    16s
  35   1.38602384e+07  1.38397191e+07  3.11e-08 1.01e-14  1.45e-02    16s
  36   1.38530852e+07  1.38406483e+07  1.93e-08 9.91e-15  8.81e-03    17s
  37   1.38489372e+07  1.38409615e+07  1.22e-08 9.71e-15  5.65e-03    17s
  38   1.38453768e+07  1.38412317e+07  6.37e-09 1.08e-14  2.94e-03    17s
  39   1.38426661e+07  1.38413496e+07  1.87e-09 9.88e-15  9.33e-04    17s
  40   1.38417836e+07  1.38413764e+07  4.77e-10 6.91e-12  2.89e-04    18s
  41   1.38415650e+07  1.38414232e+07  1.98e-09 6.41e-12  1.00e-04    18s
  42   1.38414753e+07  1.38414398e+07  1.01e-09 1.06e-11  2.52e-05    18s
  43   1.38414568e+07  1.38414475e+07  3.28e-10 4.58e-12  6.57e-06    18s
  44   1.38414492e+07  1.38414487e+07  7.28e-12 6.61e-12  3.63e-07    19s
  45   1.38414491e+07  1.38414491e+07  2.53e-09 6.37e-12  3.19e-09    19s
  46   1.38414491e+07  1.38414491e+07  3.70e-10 7.73e-12  6.69e-15    19s

Barrier solved model in 46 iterations and 19.15 seconds (14.28 work units)
Optimal objective 1.38414491e+07

Crossover log...

   12958 DPushes remaining with DInf 0.0000000e+00                19s
       0 DPushes remaining with DInf 0.0000000e+00                20s

    1947 PPushes remaining with PInf 0.0000000e+00                20s
       0 PPushes remaining with PInf 0.0000000e+00                20s

  Push phase complete: Pinf 0.0000000e+00, Dinf 1.1949840e+02     20s

Iteration    Objective       Primal Inf.    Dual Inf.      Time
    6556    1.3841449e+07   0.000000e+00   1.194984e+02     20s
    6557    1.3841449e+07   0.000000e+00   0.000000e+00     20s

Use crossover to convert LP symmetric solution to basic solution...
Crossover log...

    7934 DPushes remaining with DInf 0.0000000e+00                22s
       0 DPushes remaining with DInf 0.0000000e+00                25s

  594073 PPushes remaining with PInf 0.0000000e+00                25s
  412695 PPushes remaining with PInf 0.0000000e+00                25s
       0 PPushes remaining with PInf 0.0000000e+00                29s

  Push phase complete: Pinf 0.0000000e+00, Dinf 8.0000013e-04     29s

Iteration    Objective       Primal Inf.    Dual Inf.      Time
  608504    1.3841449e+07   0.000000e+00   8.000000e-04     29s
  608505    1.3841449e+07   0.000000e+00   0.000000e+00     30s

Solved in 608505 iterations and 30.44 seconds (25.53 work units)
Optimal objective  1.384144908e+07

User-callback calls 618223, time in user-callback 0.09 sec

Gurobi 10.0.1 (win64) logging started Sat Dec 30 18:32:59 2023

Set parameter LogFile to value "outputs/THESIS/symmetry1/gurobi/50weeks.txt"

Gurobi 10.0.1 (win64) logging started Sat Dec 30 18:33:17 2023

Set parameter LogFile to value "outputs/THESIS/symmetry1/gurobi/50weeks.txt"
Gurobi Optimizer version 10.0.1 build v10.0.1rc0 (win64)

CPU model: AMD Ryzen 7 5700U with Radeon Graphics, instruction set [SSE2|AVX|AVX2]
Thread count: 8 physical cores, 16 logical processors, using up to 16 threads

Optimize a model with 1066802 rows, 1436509 columns and 4670509 nonzeros
Model fingerprint: 0xba641176
Coefficient statistics:
  Matrix range     [1e-04, 1e+04]
  Objective range  [1e+00, 1e+00]
  Bounds range     [1e+02, 7e+04]
  RHS range        [1e+03, 7e+04]
Presolve removed 2 rows and 2 columns
Presolve time: 2.43s
Presolved: 1066800 rows, 1436507 columns, 3603600 nonzeros

Ordering time: 0.07s

Barrier statistics:
 Dense cols : 20
 AA' NZ     : 7.056e+05
 Factor NZ  : 6.989e+06 (roughly 500 MB of memory)
 Factor Ops : 1.744e+08 (less than 1 second per iteration)
 Threads    : 8

                  Objective                Residual
Iter       Primal          Dual         Primal    Dual     Compl     Time
   0   1.83757215e+10 -1.17548797e+11  2.25e+04 9.44e+00  9.37e+05     6s
   1   3.42591765e+09 -9.23550272e+10  1.83e+03 2.23e+00  1.15e+05     6s
   2   2.26795338e+09 -2.03558117e+10  9.09e-12 1.62e-01  1.61e+04     6s
   3   4.95557343e+08 -7.61460777e+08  9.09e-12 1.28e-13  8.93e+02     6s
   4   1.31679140e+08 -1.07040071e+07  9.09e-12 1.65e-14  1.01e+02     7s
   5   7.76074203e+07  3.44836850e+05  1.24e-10 1.12e-14  5.48e+01     7s
   6   6.44427311e+07  4.36281804e+06  7.69e-10 1.03e-14  4.26e+01     7s
   7   5.85908213e+07  6.72532449e+06  2.98e-09 9.50e-15  3.68e+01     7s
   8   4.88367690e+07  8.07123953e+06  6.53e-08 8.51e-15  2.89e+01     7s
   9   4.00513579e+07  1.03227018e+07  9.39e-08 1.06e-14  2.11e+01     8s
  10   3.57612614e+07  1.09806403e+07  8.04e-08 1.01e-14  1.76e+01     8s
  11   2.98206520e+07  1.12546417e+07  1.22e-07 9.97e-15  1.32e+01     8s
  12   2.77748472e+07  1.17697105e+07  3.70e-07 9.27e-15  1.13e+01     9s
  13   2.58213888e+07  1.21558940e+07  3.80e-07 9.40e-15  9.68e+00     9s
  14   2.25418443e+07  1.25125675e+07  6.57e-07 8.94e-15  7.11e+00     9s
  15   2.07857500e+07  1.29265816e+07  3.17e-07 9.79e-15  5.57e+00    10s
  16   2.00794511e+07  1.30216100e+07  4.50e-07 9.44e-15  5.00e+00    10s
  17   1.92120984e+07  1.30854055e+07  2.75e-07 1.02e-14  4.34e+00    10s
  18   1.80371373e+07  1.33336723e+07  2.77e-07 9.25e-15  3.33e+00    11s
  19   1.73425584e+07  1.34971660e+07  1.22e-06 8.93e-15  2.72e+00    11s
  20   1.65560303e+07  1.35521081e+07  1.43e-06 9.12e-15  2.13e+00    11s
  21   1.59283331e+07  1.36089620e+07  2.06e-06 9.25e-15  1.64e+00    12s
  22   1.57551009e+07  1.36370232e+07  1.91e-06 8.74e-15  1.50e+00    12s
  23   1.54856133e+07  1.36564957e+07  1.71e-06 9.55e-15  1.30e+00    12s
  24   1.52777847e+07  1.37079419e+07  1.45e-06 1.07e-14  1.11e+00    13s
  25   1.49028150e+07  1.37249829e+07  1.11e-06 1.07e-14  8.35e-01    13s
  26   1.48767461e+07  1.37394515e+07  1.09e-06 1.07e-14  8.06e-01    13s
  27   1.44587169e+07  1.37666058e+07  8.67e-07 9.13e-15  4.90e-01    14s
  28   1.42115687e+07  1.38001454e+07  5.17e-07 9.99e-15  2.92e-01    14s
  29   1.40342815e+07  1.38138194e+07  3.00e-07 9.57e-15  1.56e-01    15s
  30   1.39511422e+07  1.38243967e+07  1.87e-07 9.69e-15  8.98e-02    15s
  31   1.39177792e+07  1.38289475e+07  1.29e-07 9.37e-15  6.29e-02    15s
  32   1.39081898e+07  1.38322751e+07  1.12e-07 1.00e-14  5.38e-02    15s
  33   1.38947855e+07  1.38363414e+07  8.98e-08 9.91e-15  4.14e-02    16s
  34   1.38745571e+07  1.38384557e+07  5.57e-08 9.69e-15  2.56e-02    16s
  35   1.38602384e+07  1.38397191e+07  3.11e-08 1.01e-14  1.45e-02    16s
  36   1.38530852e+07  1.38406483e+07  1.93e-08 9.91e-15  8.81e-03    17s
  37   1.38489372e+07  1.38409615e+07  1.22e-08 9.71e-15  5.65e-03    17s
  38   1.38453768e+07  1.38412317e+07  6.37e-09 1.08e-14  2.94e-03    17s
  39   1.38426661e+07  1.38413496e+07  1.87e-09 9.88e-15  9.33e-04    17s
  40   1.38417836e+07  1.38413764e+07  4.77e-10 6.91e-12  2.89e-04    18s
  41   1.38415650e+07  1.38414232e+07  1.98e-09 6.41e-12  1.00e-04    18s
  42   1.38414753e+07  1.38414398e+07  1.01e-09 1.06e-11  2.52e-05    18s
  43   1.38414568e+07  1.38414475e+07  3.28e-10 4.58e-12  6.57e-06    18s
  44   1.38414492e+07  1.38414487e+07  7.28e-12 6.61e-12  3.63e-07    19s
  45   1.38414491e+07  1.38414491e+07  2.53e-09 6.37e-12  3.19e-09    19s
  46   1.38414491e+07  1.38414491e+07  3.70e-10 7.73e-12  6.69e-15    19s

Barrier solved model in 46 iterations and 19.16 seconds (14.28 work units)
Optimal objective 1.38414491e+07

Crossover log...

   12958 DPushes remaining with DInf 0.0000000e+00                19s
       0 DPushes remaining with DInf 0.0000000e+00                20s

    1947 PPushes remaining with PInf 0.0000000e+00                20s
       0 PPushes remaining with PInf 0.0000000e+00                20s

  Push phase complete: Pinf 0.0000000e+00, Dinf 1.1949840e+02     20s

Iteration    Objective       Primal Inf.    Dual Inf.      Time
    6556    1.3841449e+07   0.000000e+00   1.194984e+02     20s
    6557    1.3841449e+07   0.000000e+00   0.000000e+00     20s

Use crossover to convert LP symmetric solution to basic solution...
Crossover log...

    7934 DPushes remaining with DInf 0.0000000e+00                22s
       0 DPushes remaining with DInf 0.0000000e+00                25s

  594073 PPushes remaining with PInf 0.0000000e+00                25s
  412695 PPushes remaining with PInf 0.0000000e+00                25s
       0 PPushes remaining with PInf 0.0000000e+00                29s

  Push phase complete: Pinf 0.0000000e+00, Dinf 8.0000013e-04     29s

Iteration    Objective       Primal Inf.    Dual Inf.      Time
  608504    1.3841449e+07   0.000000e+00   8.000000e-04     29s
  608505    1.3841449e+07   0.000000e+00   0.000000e+00     30s

Solved in 608505 iterations and 30.10 seconds (25.53 work units)
Optimal objective  1.384144908e+07

User-callback calls 618225, time in user-callback 0.11 sec
